Si C 
 1.0000000000000000
     3.0946548800000002    0.0000000000000000    0.0000000000000000
    -1.5473274399999992    2.6800497420254841    0.0000000000000000
     0.0000000000000000    0.0000000000000000   25.3091000000000008
 Si  C  
  10  10
Cartesian
  0.0000000000000000  0.0000000000000000  5.0597446538000002
  0.0000000000000000  0.0000000000000000 10.1224757814000004
 -0.0000000154732739  1.7866998369504885  7.5922491271000014
  0.0000000000000000  0.0000000000000000 15.1844223269000036
 -0.0000000154732739  1.7866998369504885 25.3083154179000047
 -0.0000000154732739  1.7866998369504885 17.7158638180000061
  1.5473274554732748  0.8933499050749955 22.7757856355000037
  0.0000000000000000  0.0000000000000000 20.2478621093000015
  1.5473274554732748  0.8933499050749955  2.5313149456000001
  1.5473274554732748  0.8933499050749955 12.6537907270000005
 -0.0000000154732739  1.7866998369504885 19.6191334471000012
 -0.0000000154732739  1.7866998369504885  1.9026875197999999
  0.0000000000000000  0.0000000000000000 17.0808584990000014
  0.0000000000000000  0.0000000000000000  6.9581802448000003
  1.5473274554732748  0.8933499050749955  4.4288140999000003
  1.5473274554732748  0.8933499050749955 14.5572375197999992
  0.0000000000000000  0.0000000000000000 12.0190131899000026
  1.5473274554732748  0.8933499050749955 24.6741452991999992
 -0.0000000154732739  1.7866998369504885  9.4953669016000006
  0.0000000000000000  0.0000000000000000 22.1455637363999998
