
ALGO = Normal
EDIFF = 0.002
ENCUT = 520
ISMEAR = 2
ISPIN = 2
LREAL = Auto
LWAVE = False
NELM = 100
NSW = 100
PREC = Normal
SIGMA = 0.05
LCHARG = .False.
MAGMOM = 8*0.6
