Si
 1.0000000000000000
     5.4687279999999996    0.0000000000000000    0.0000000000000000
     0.0000000000000000    5.4687279999999996    0.0000000000000000
     0.0000000000000000    0.0000000000000000    5.4687279999999996
 Si 
   8
Cartesian
  1.3671819999999999  4.1015459999999999  1.3671819999999999
  0.0000000000000000  0.0000000000000000  2.7343639999999998
  1.3671819999999999  1.3671819999999999  4.1015459999999999
  0.0000000000000000  2.7343639999999998  0.0000000000000000
  4.1015459999999999  4.1015459999999999  4.1015459999999999
  2.7343639999999998  0.0000000000000000  0.0000000000000000
  4.1015459999999999  1.3671819999999999  1.3671819999999999
  2.7343639999999998  2.7343639999999998  2.7343639999999998
